
  32   50
  14   12   12   15   16    4   16    9    4   15   16    7    9   15    3   12   13   11   17   19   10    9   11    9    8    5    4    8    7   12    8   10    0    0    0    0    0    0    0    0    0    0    0    0    0    0    0    0    0    0

   0   0   0   0   0   0   0   0   0   0   0   0   0   0   0   0   0   0   0   0   0   0   0   0   0   0   0   0   0   0   0   0   0   0   0   0   0   0   0   0   0   0   0   0   0   0   0   0   0   0   0  11 2 3 4 5 6 7 8 12 14 16 17 
  10   0   0   5   0   6   0   2   0   0   0  10   0   0   0   0   3   0   0   0   0   0   0   0   0   0   0   0   0   3   0   0   0   0   0   0   0   0   0   0   0   0   0   0   0   0   0   0   0   0   0   5 28 25 20 18 9 
  10   8   0   0   0   0   0   9   0   0   0   0   0   0   0   0   0   0   0   3   0   0   0   0   0   0   2   0   0   0   0   0   0   0   0   0   0   0   0   0   0   0   0   0   0   0   0   0   0   0   0   8 30 28 27 26 20 19 18 15 
   9   0   0   0   0   0   0   0   0   3   0   0   0   0   2   0   0   0   0   0   0   0   2   0   0   0   0   0   0   0   5   2   0   0   0   0   0   0   0   0   0   0   0   0   0   0   0   0   0   0   0   5 29 27 24 19 10 
   5   7   0   0   0   0   0   0   0   0   0   0   0   3   0   0   0  10   0   7   0   0   0   0   0   0   0   0   1   2   0   0   0   0   0   0   0   0   0   0   0   0   0   0   0   0   0   0   0   0   0   7 29 27 26 24 20 19 18 
   2   0   0   0   1   0   0   0   0   2   7   0   0   0   2   0   7   0   9   0   1   2   0   4   0   0   0   0   0   0   0   5   0   0   0   0   0   0   0   0   0   0   0   0   0   0   0   0   0   0   0   4 31 29 19 13 
   8   0   0   0   0  10   0   0   0   0   0   0   0   0   0   0   6   0   0   0   4   0   2   0   0   0   0   0   0   0   0   0   2   0   0   0   0   0   0   0   0   0   0   0   0   0   0   0   0   0   0   4 30 25 21 13 
   6   0   0   0   0   0   4   0   0   0   3   0   0   0   0   0   0   0   0  10   1   0   0   4   0   0   0   0   8   0   0   0   9   0   0   0   0   0   0   0   0   0   0   0   0   0   0   0   0   0   0   6 30 27 26 25 21 20 
   2   0   0   0   0   0   0   0   0   0   1   0   0   0   0   0   0   9   0   6   9   0   0   0   0   0   0   0   0   0  10   2   0   0   0   0   0   0   0   0   0   0   0   0   0   0   0   0   0   0   0   2 27 11 
   1   2   0   0   0   0   0   0   0   0   6   0   0   0   9   0   0   0  10   0   8   0   0  10   0   0   0   0   0   0   0   0   0   0   0   0   0   0   0   0   0   0   0   0   0   0   0   0   0   0   0   5 28 25 21 20 18 
   2   0   0   0   0   0   0   0   0   1   0   0   0   0   0   0   0   0   0   0   0   0   0   0   0   0   0   0   0   0   3   0   0   0   0   0   0   0   0   0   0   0   0   0   0   0   0   0   0   0   0   5 30 29 26 24 21 
  10   0   0   0   9   2   0   2   0   0   0   0   0   0  10   0   0   5   0   0   0   0   0   0   0   0   0   4   0   2   0   0   0   0   0   0   0   0   0   0   0   0   0   0   0   0   0   0   0   0   0   5 31 26 25 24 22 
   9   0   0   0   0   0   0   0   0   0   0   0   0   0   0   2   0   0   0   0  10   0   2   0   0   4   0   0   0   0   0   0   0   0   0   0   0   0   0   0   0   0   0   0   0   0   0   0   0   0   0   3 24 20 18 
   4   0   0   0   0   0   0   0   0   0   0  10   0   0   0   3   0   0   0   0   6   0   0   5   0   0   0   0   0   0   0   0   0   0   0   0   0   0   0   0   0   0   0   0   0   0   0   0   0   0   0   3 28 20 18 
   3   0   0   0   6  10   0   0   0   0   0   0   0   0   0   0   0   1   0   0   0   0   0   1   0   0   0   0   0   0   0   0   0   0   0   0   0   0   0   0   0   0   0   0   0   0   0   0   0   0   0   3 24 23 21 
   2   3   0   0   0   2   0   7   0   0   9   0   0   0   0   0   0   0   0   1   0   0   0   0   0   0   0   0   0   0   0   0   0   0   0   0   0   0   0   0   0   0   0   0   0   0   0   0   0   0   0   3 28 27 20 
   8   0   0   9   0   0   0   0   4   0   0   0   1   0   0   0   0   0   0   0   0   9   0   0   0   8   0   0   0   0   4   3   0   0   0   0   0   0   0   0   0   0   0   0   0   0   0   0   0   0   0   3 26 24 21 
   1   0   0   0   0  10   0   0   0   0   9   0   0   0   0   0   0   5   0   0   0   0   0   0   0   3   0   0   0   0   0   0   0   0   0   0   0   0   0   0   0   0   0   0   0   0   0   0   0   0   0   2 23 22 
   7   0   0   0   0   0   0   0   2   0   0   0   0   8   0   0   0   0   0   0   0   0   0   0   0   0   0   3   0   0   0   0   9   0   0   0   0   0   0   0   0   0   0   0   0   0   0   0   0   0   0   2 25 23 
   2   0   0   0   0   0   0   0   0   0   0   0   0   3   0   0   0   0   7   3   0   0   0   0   0   0   0   0   0   0   0   0   0   0   0   0   0   0   0   0   0   0   0   0   0   0   0   0   0   0   0   1 23 
   9   0   0   0   0   0   0   0   8   0  10   0   0   0   0   0   0   0   0   0   0   0   0   0   0   0   0   0   0   0   0   0   0   0   0   0   0   0   0   0   0   0   0   0   0   0   0   0   0   0   0   1 22 
   2   0   0   0   9   0   0   0   0   0   0   3   0   0   0   0   0   3   0   0   0   0   0   0   1   0   0   0   0   6   0   5   0   0   0   0   0   0   0   0   0   0   0   0   0   0   0   0   0   0   0   1 32
   8   0   0   0   0   0   0   0   1   0   0   0   3   0   0   0   0   0   0   0   0   3   0   0   0   0   0   0   0   0   0   0   0   0   0   0   0   0   0   0   0   0   0   0   0   0   0   0   0   0   0   1 32
   3   0   0   0   0   0   0   0   0   0   0   4   0   0   0   0   0   0   0   0   0   0   0   0   0   0   0   0   0   0   0   0   1   0   0   0   0   0   0   0   0   0   0   0   0   0   0   0   0   0   0   1 32
   8   0   0   0   0   0   0   0   0   0   0   0   0   0   0   0   0   0   0   0   0   0   0   0   0   0   0   0   0   0   0   0   0   0   0   0   0   0   0   0   0   0   0   0   0   0   0   0   0   0   0   1 32
   3   0   9   0   0   0   0   0   0   0   0   0   6   2   0   0   0   0   0   0   7   0   0   0   0   0   0   0   0   0   0   0   0   0   0   0   0   0   0   0   0   0   0   0   0   0   0   0   0   0   0   1 32
   2   0   0   0   0   0   0   0   0   0   0   0   0   0   6   0   0   0   0   0   0   5   0   0   0   0   0   0   0   7   0   0   0   0   0   0   0   0   0   0   0   0   0   0   0   0   0   0   0   0   0   1 32
   8   0   0   1   0   0   0   0   0   0   0   0   0   0   0   0   0   0   3   0   0   0   0   0   9   0   0   0   0   0   4   0   0   0   0   0   0   0   0   0   0   0   0   0   0   0   0   0   0   0   0   1 32
  10   2   6   0  10   0   0   0   0   0   0   0   2   0   0   0   6   0   0   0   0   0   8   0   0   0   5   0   0   0   0   0   0   0   0   0   0   0   0   0   0   0   0   0   0   0   0   0   0   0   0   1 32
   3   0   0   0   0   0   0   0   0   0   0   0   0   0   0   0   0   2  10   0   8   0   0   0   0   0   0   0   0   0   0   0   0   0   0   0   0   0   0   0   0   0   0   0   0   0   0   0   0   0   0   1 32
   8   0   0   0   0   0   0   0   0   0   0   0   0   0   0   0   0   0   0   0   0   0   0   0   0   0   0   0   0   0   0   0   0   0   0   0   0   0   0   0   0   0   0   0   0   0   0   0   0   0   0   1 32
   0   0   0   0   0   0   0   0   0   0   0   0   0   0   0   0   0   0   0   0   0   0   0   0   0   0   0   0   0   0   0   0   0   0   0   0   0   0   0   0   0   0   0   0   0   0   0   0   0   0   0   0 
